(set-info :smt-lib-version 2.6)
(set-logic UF)
(set-info :source |Benchmarks from the paper: "Extending Sledgehammer with SMT Solvers" by Jasmin Blanchette, Sascha Bohme, and Lawrence C. Paulson, CADE 2011.  Translated to SMT2 by Andrew Reynolds and Morgan Deters.|)
(set-info :category "industrial")
(set-info :status sat)
(declare-sort S1 0)
(declare-sort S2 0)
(declare-sort S3 0)
(declare-sort S4 0)
(declare-sort S5 0)
(declare-sort S6 0)
(declare-sort S7 0)
(declare-sort S8 0)
(declare-sort S9 0)
(declare-sort S10 0)
(declare-sort S11 0)
(declare-sort S12 0)
(declare-sort S13 0)
(declare-sort S14 0)
(declare-sort S15 0)
(declare-sort S16 0)
(declare-sort S17 0)
(declare-sort S18 0)
(declare-sort S19 0)
(declare-sort S20 0)
(declare-sort S21 0)
(declare-sort S22 0)
(declare-sort S23 0)
(declare-sort S24 0)
(declare-sort S25 0)
(declare-sort S26 0)
(declare-sort S27 0)
(declare-sort S28 0)
(declare-sort S29 0)
(declare-sort S30 0)
(declare-sort S31 0)
(declare-sort S32 0)
(declare-sort S33 0)
(declare-sort S34 0)
(declare-sort S35 0)
(declare-sort S36 0)
(declare-sort S37 0)
(declare-sort S38 0)
(declare-sort S39 0)
(declare-sort S40 0)
(declare-sort S41 0)
(declare-sort S42 0)
(declare-sort S43 0)
(declare-sort S44 0)
(declare-sort S45 0)
(declare-sort S46 0)
(declare-sort S47 0)
(declare-sort S48 0)
(declare-fun f1 () S1)
(declare-fun f2 () S1)
(declare-fun f3 (S2 S2) S1)
(declare-fun f4 (S3 S4) S2)
(declare-fun f5 () S3)
(declare-fun f6 (S5 S4) S4)
(declare-fun f7 (S6 S4) S5)
(declare-fun f8 () S6)
(declare-fun f9 (S7 S2) S4)
(declare-fun f10 () S7)
(declare-fun f11 () S2)
(declare-fun f12 (S8 S9) S5)
(declare-fun f13 () S8)
(declare-fun f14 () S9)
(declare-fun f15 (S10 S2) S2)
(declare-fun f16 (S11 S2) S10)
(declare-fun f17 () S11)
(declare-fun f18 () S2)
(declare-fun f19 (S2 S2) S1)
(declare-fun f20 () S2)
(declare-fun f21 () S2)
(declare-fun f22 () S4)
(declare-fun f23 () S10)
(declare-fun f24 () S10)
(declare-fun f25 () S4)
(declare-fun f26 (S13 S9) S9)
(declare-fun f27 (S14 S9) S13)
(declare-fun f28 () S14)
(declare-fun f29 (S16 S15) S10)
(declare-fun f30 () S16)
(declare-fun f31 (S17 S15) S15)
(declare-fun f32 (S18 S15) S17)
(declare-fun f33 () S18)
(declare-fun f34 (S21 S20) S20)
(declare-fun f35 (S22 S19) S21)
(declare-fun f36 () S22)
(declare-fun f37 (S23 S19) S19)
(declare-fun f38 (S24 S19) S23)
(declare-fun f39 () S24)
(declare-fun f40 (S25 S20) S21)
(declare-fun f41 () S25)
(declare-fun f42 (S28 S27) S27)
(declare-fun f43 (S29 S26) S28)
(declare-fun f44 () S29)
(declare-fun f45 (S30 S26) S26)
(declare-fun f46 (S31 S26) S30)
(declare-fun f47 () S31)
(declare-fun f48 (S32 S27) S28)
(declare-fun f49 () S32)
(declare-fun f50 (S35 S34) S34)
(declare-fun f51 (S36 S33) S35)
(declare-fun f52 () S36)
(declare-fun f53 (S37 S33) S33)
(declare-fun f54 (S38 S33) S37)
(declare-fun f55 () S38)
(declare-fun f56 (S39 S34) S35)
(declare-fun f57 () S39)
(declare-fun f58 (S40 S34) S17)
(declare-fun f59 () S40)
(declare-fun f60 (S41 S27) S13)
(declare-fun f61 () S41)
(declare-fun f62 (S43 S42) S42)
(declare-fun f63 (S44 S20) S43)
(declare-fun f64 () S44)
(declare-fun f65 (S45 S42) S43)
(declare-fun f66 () S45)
(declare-fun f67 () S4)
(declare-fun f68 () S11)
(declare-fun f69 (S46 S4) S13)
(declare-fun f70 () S46)
(declare-fun f71 () S4)
(declare-fun f72 () S9)
(declare-fun f73 () S20)
(declare-fun f74 () S42)
(declare-fun f75 () S15)
(declare-fun f76 () S26)
(declare-fun f77 () S27)
(declare-fun f78 (S47 S48) S23)
(declare-fun f79 () S47)
(declare-fun f80 () S48)
(declare-fun f81 () S19)
(declare-fun f82 () S33)
(declare-fun f83 () S34)
(assert (not (= f1 f2)))
(assert (let ((?v_0 (f9 f10 f11))) (not (= (f3 (f4 f5 (f6 (f7 f8 ?v_0) (f6 (f12 f13 f14) ?v_0))) (f15 (f16 f17 f11) f18)) f1))))
(assert (= (f3 (f4 f5 (f6 (f12 f13 f14) (f9 f10 f11))) f18) f1))
(assert (= (f19 f20 f11) f1))
(assert (= (f19 f20 f11) f1))
(assert (= (f19 f20 f18) f1))
(assert (= (f3 (f4 f5 (f6 (f12 f13 f14) (f9 f10 f11))) f18) f1))
(assert (forall ((?v0 S12) (?v1 S4)) (=> (= (f3 (f4 f5 ?v1) f21) f1) (= (f3 (f4 f5 (f6 (f12 f13 f14) ?v1)) f18) f1))))
(assert (= (f19 f11 f21) f1))
(assert (let ((?v_0 (f9 f10 f11))) (= (f4 f5 (f6 (f7 f8 ?v_0) (f6 (f12 f13 f14) ?v_0))) (f4 f5 f22))))
(assert (= (f3 (f4 f5 (f9 f10 f11)) f21) f1))
(assert (forall ((?v0 S2) (?v1 S2)) (= (f3 (f15 f23 (f15 (f16 f17 ?v0) ?v1)) (f15 (f16 f17 (f15 f23 ?v0)) (f15 f23 ?v1))) f1)))
(assert (forall ((?v0 S4) (?v1 S4)) (= (f3 (f4 f5 (f6 (f7 f8 ?v0) ?v1)) (f15 (f16 f17 (f4 f5 ?v0)) (f4 f5 ?v1))) f1)))
(assert (forall ((?v0 S9)) (exists ((?v1 S4)) (forall ((?v2 S4)) (let ((?v_0 (f12 f13 ?v0))) (= (f3 (f4 f5 (f6 ?v_0 ?v1)) (f4 f5 (f6 ?v_0 ?v2))) f1))))))
(assert (forall ((?v0 S2) (?v1 S9)) (exists ((?v2 S4)) (forall ((?v3 S4)) (let ((?v_0 (f12 f13 ?v1))) (=> (= (f3 (f4 f5 ?v3) ?v0) f1) (= (f3 (f4 f5 (f6 ?v_0 ?v2)) (f4 f5 (f6 ?v_0 ?v3))) f1)))))))
(assert (forall ((?v0 S2) (?v1 S2)) (= (f9 f10 (f15 (f16 f17 ?v0) ?v1)) (f6 (f7 f8 (f9 f10 ?v0)) (f9 f10 ?v1)))))
(assert (forall ((?v0 S2) (?v1 S2)) (= (f15 f24 (f15 (f16 f17 ?v0) ?v1)) (f15 (f16 f17 (f15 f24 ?v0)) (f15 f24 ?v1)))))
(assert (forall ((?v0 S2) (?v1 S2)) (= (f15 f23 (f15 (f16 f17 ?v0) ?v1)) (f15 (f16 f17 (f15 f23 ?v0)) (f15 f23 ?v1)))))
(assert (forall ((?v0 S4) (?v1 S4)) (= (f4 f5 (f6 (f7 f8 ?v0) ?v1)) (f15 (f16 f17 (f4 f5 ?v0)) (f4 f5 ?v1)))))
(assert (not (= (f9 f10 f11) f25)))
(assert (forall ((?v0 S2)) (= (f3 ?v0 ?v0) f1)))
(assert (forall ((?v0 S9) (?v1 S9) (?v2 S4)) (= (f6 (f12 f13 (f26 (f27 f28 ?v0) ?v1)) ?v2) (f6 (f7 f8 (f6 (f12 f13 ?v0) ?v2)) (f6 (f12 f13 ?v1) ?v2)))))
(assert (forall ((?v0 S15) (?v1 S15) (?v2 S2)) (= (f15 (f29 f30 (f31 (f32 f33 ?v0) ?v1)) ?v2) (f15 (f16 f17 (f15 (f29 f30 ?v0) ?v2)) (f15 (f29 f30 ?v1) ?v2)))))
(assert (forall ((?v0 S19) (?v1 S19) (?v2 S20)) (= (f34 (f35 f36 (f37 (f38 f39 ?v0) ?v1)) ?v2) (f34 (f40 f41 (f34 (f35 f36 ?v0) ?v2)) (f34 (f35 f36 ?v1) ?v2)))))
(assert (forall ((?v0 S26) (?v1 S26) (?v2 S27)) (= (f42 (f43 f44 (f45 (f46 f47 ?v0) ?v1)) ?v2) (f42 (f48 f49 (f42 (f43 f44 ?v0) ?v2)) (f42 (f43 f44 ?v1) ?v2)))))
(assert (forall ((?v0 S33) (?v1 S33) (?v2 S34)) (= (f50 (f51 f52 (f53 (f54 f55 ?v0) ?v1)) ?v2) (f50 (f56 f57 (f50 (f51 f52 ?v0) ?v2)) (f50 (f51 f52 ?v1) ?v2)))))
(assert (forall ((?v0 S34) (?v1 S34) (?v2 S15)) (= (f31 (f58 f59 (f50 (f56 f57 ?v0) ?v1)) ?v2) (f31 (f32 f33 (f31 (f58 f59 ?v0) ?v2)) (f31 (f58 f59 ?v1) ?v2)))))
(assert (forall ((?v0 S27) (?v1 S27) (?v2 S9)) (= (f26 (f60 f61 (f42 (f48 f49 ?v0) ?v1)) ?v2) (f26 (f27 f28 (f26 (f60 f61 ?v0) ?v2)) (f26 (f60 f61 ?v1) ?v2)))))
(assert (forall ((?v0 S20) (?v1 S20) (?v2 S42)) (= (f62 (f63 f64 (f34 (f40 f41 ?v0) ?v1)) ?v2) (f62 (f65 f66 (f62 (f63 f64 ?v0) ?v2)) (f62 (f63 f64 ?v1) ?v2)))))
(assert (exists ((?v0 S2)) (forall ((?v1 S2)) (= (f3 (f4 f5 (f9 f10 ?v1)) (f15 (f16 f17 (f15 f23 ?v1)) ?v0)) f1))))
(assert (exists ((?v0 S2)) (forall ((?v1 S2)) (= (f3 (f15 f23 (f15 f24 ?v1)) (f15 (f16 f17 (f15 f23 ?v1)) ?v0)) f1))))
(assert (not (= f22 f25)))
(assert (not (= f67 f25)))
(assert (exists ((?v0 S2)) (and (= (f19 f20 ?v0) f1) (forall ((?v1 S4)) (=> (= (f3 (f4 f5 ?v1) f21) f1) (= (f3 (f4 f5 (f6 (f12 f13 f14) ?v1)) ?v0) f1))))))
(assert (= (f19 f11 (f15 (f16 f68 (f4 f5 f22)) f18)) f1))
(assert (forall ((?v0 S4)) (=> (not (= ?v0 f25)) (= (f6 (f12 f13 (f26 (f69 f70 f22) f14)) ?v0) f25))))
(assert (forall ((?v0 S2)) (not (= (f19 ?v0 ?v0) f1))))
(assert (= (f9 f10 f21) f71))
(assert (= (f15 f24 f21) f21))
(assert (= (f15 f23 f21) f21))
(assert (= (f4 f5 f71) f21))
(assert (forall ((?v0 S2) (?v1 S2)) (= (not (= ?v0 ?v1)) (or (= (f19 ?v0 ?v1) f1) (= (f19 ?v1 ?v0) f1)))))
(assert (forall ((?v0 S2) (?v1 S2)) (= (not (= (f19 ?v0 ?v1) f1)) (or (= (f19 ?v1 ?v0) f1) (= ?v0 ?v1)))))
(assert (forall ((?v0 S4)) (= (f6 (f12 f13 f72) ?v0) f71)))
(assert (forall ((?v0 S42)) (= (f62 (f63 f64 f73) ?v0) f74)))
(assert (forall ((?v0 S2)) (= (f15 (f29 f30 f75) ?v0) f21)))
(assert (forall ((?v0 S27)) (= (f42 (f43 f44 f76) ?v0) f77)))
(assert (forall ((?v0 S19)) (= (f37 (f78 f79 f80) ?v0) f81)))
(assert (forall ((?v0 S34)) (= (f50 (f51 f52 f82) ?v0) f83)))
(assert (forall ((?v0 S15)) (= (f31 (f58 f59 f83) ?v0) f75)))
(assert (forall ((?v0 S20)) (= (f34 (f35 f36 f81) ?v0) f73)))
(assert (forall ((?v0 S9)) (= (f26 (f60 f61 f77) ?v0) f72)))
(assert (forall ((?v0 S2) (?v1 S2)) (or (= (f19 ?v0 ?v1) f1) (or (= ?v0 ?v1) (= (f19 ?v1 ?v0) f1)))))
(assert (forall ((?v0 S2) (?v1 S2)) (=> (not (= (f19 ?v0 ?v1) f1)) (= (not (= (f19 ?v1 ?v0) f1)) (= ?v1 ?v0)))))
(assert (forall ((?v0 S2) (?v1 S2)) (=> (not (= ?v0 ?v1)) (=> (=> (= (f19 ?v0 ?v1) f1) false) (=> (=> (= (f19 ?v1 ?v0) f1) false) false)))))
(assert (forall ((?v0 S2) (?v1 S2)) (=> (= (f19 ?v0 ?v1) f1) (not (= ?v0 ?v1)))))
(check-sat)
(exit)
